%chk=HF_UCCSDT_pVTZ_smallscan.chk
%mem=16GB
%NProcShared=20
#p CCSD(T)/ cc-pVTZ scf=(tight,xqc,maxcycle=512) guess=mix nosymm

HF PES scan — UCCSDT/ cc-pVTZ  R: 0.94

0 1
H
F 1 R

R=0.94

B 1 2 S 10 0.01
