! UKS B3LYP def2-TZVP RIJCOSX def2/J Opt Freq TightSCF CPCM(Water)

%pal 
  nprocs 20
end
%maxcore 2500

%scf
  MaxIter   1000
end

%output
  Print[P_Mulliken] 1
  Print[P_Loewdin] 1
  XYZFile true
end


* xyz 0 1
C      0.02296308   -1.85996995    0.00000000
C      0.00798067   -1.16244008    1.20816295
C     -0.02331454    0.23192082    1.20824560
C     -0.03844324    0.92941901    0.00000000
C     -0.02331454    0.23192082   -1.20824560
C      0.00798067   -1.16244008   -1.20816295
H      0.04718689   -2.95931340    0.00000000
H      0.01953870   -1.71237863    2.16035820
H     -0.03575925    0.78177634   -2.16050635
H      0.01953870   -1.71237863   -2.16035820
O     -0.07045338    2.35906064    0.00000000
H      0.82708134    2.69969202    0.00000000
Cl    -0.04323187    1.11194551    2.73230591
*

