%chk=C:\Users\Dog of Roman\OneDrive - National University of Singapore\??\5235\?????\3\F-CH2-C.chk
# hf/3-21g geom=connectivity

Title Card Required

0 1
 C                 -4.57845447    3.12646365    0.00000000
 H                 -4.22180004    2.11765365    0.00000000
 H                 -4.22178163    3.63086184   -0.87365150
 F                 -4.12844668    3.76285389    1.10227059
 Cl                -6.33845447    3.12648534    0.00000000

 1 2 1.0 3 1.0 4 1.0 5 1.0
 2
 3
 4
 5

